Route #1: 1 54 39 51 41 56 40 24 64 34 1
Route #2: 1 10 49 45 35 60 17 13 46 31 1
Route #3: 1 20 26 12 4 30 68 37 33 7 43 53 1
Route #4: 1 61 5 48 36 28 65 16 57 1
Route #5: 1 32 2 19 25 29 59 11 1
Route #6: 1 62 52 58 50 23 1
Route #7: 1 6 15 63 55 22 47 14 8 1
Route #8: 1 18 21 27 42 38 9 3 1
Route #9: 1 66 44 67 1
cost: 1472
